30
5
332508
0
0
131 11 15 35 175
1
0
118 19 18 33 118
2
0
123 22 34 45 161
3
0
122 22 28 38 133
4
0
133 16 38 45 177
5
0
126 18 30 47 124
6
0
108 15 21 48 109
7
0
127 14 26 50 112
8
0
105 19 35 36 164
9
0
120 11 26 27 152
10
0
155 23 31 26 124
11
0
132 10 24 58 132
12
0
147 13 38 29 142
13
0
85 18 36 57 168
14
0
149 11 38 46 141
15
0
122 8 31 30 161
16
0
144 12 36 58 123
17
0
185 10 33 48 111
18
0
172 9 18 61 131
19
0
156 17 23 36 186
20
0
143 15 18 62 153
21
0
168 25 37 44 144
22
0
169 23 27 45 171
23
0
139 18 29 22 183
24
0
146 14 34 29 159
25
0
116 15 35 57 133
26
0
164 22 19 30 164
27
0
122 22 26 49 156
28
0
114 30 39 45 149
29
0
133 17 30 63 156
